CSW06
Position Depot: Center
Horizon for Depot: Small
Position of customers: Cluster
Distribution of the demand: Small
Width of time windows: Wide
Distribution of the service: Large

VEHICLE 
NUMBER 	 CAPACITY 
 11 	 	 69 
 
CUSTOMER
CUST NO. 	 XCOORD.  	 YCOORD. 	 DEMAND 	 READY TIME 	 DUE DATE 	 SERVICE TIME 
 0 	 	 500 	 	 500 	 	 0 	 	 0 	 	 2381 	 	 0 
  1 	 	 688 	 	 209 	 	 9 	 	 108 	 	 381 	 	 148 
  2 	 	 41 	 	 467 	 	 10 	 	 1385 	 	 1785 	 	 146 
  3 	 	 933 	 	 710 	 	 7 	 	 409 	 	 875 	 	 127 
  4 	 	 168 	 	 291 	 	 10 	 	 1226 	 	 1684 	 	 110 
  5 	 	 202 	 	 524 	 	 10 	 	 1013 	 	 1443 	 	 170 
  6 	 	 40 	 	 426 	 	 9 	 	 1053 	 	 1388 	 	 126 
  7 	 	 778 	 	 139 	 	 8 	 	 473 	 	 719 	 	 196 
  8 	 	 685 	 	 202 	 	 7 	 	 885 	 	 1192 	 	 108 
  9 	 	 106 	 	 359 	 	 9 	 	 1704 	 	 1991 	 	 168 
  10 	 	 233 	 	 326 	 	 9 	 	 1314 	 	 1702 	 	 119 
  11 	 	 54 	 	 493 	 	 7 	 	 1181 	 	 1673 	 	 116 
  12 	 	 824 	 	 168 	 	 6 	 	 86 	 	 510 	 	 156 
  13 	 	 742 	 	 210 	 	 9 	 	 179 	 	 547 	 	 108 
  14 	 	 752 	 	 194 	 	 7 	 	 1895 	 	 2381 	 	 192 
  15 	 	 35 	 	 424 	 	 9 	 	 1891 	 	 2381 	 	 151 
  16 	 	 103 	 	 645 	 	 5 	 	 1900 	 	 2168 	 	 115 
  17 	 	 256 	 	 302 	 	 7 	 	 373 	 	 843 	 	 124 
  18 	 	 200 	 	 232 	 	 6 	 	 151 	 	 442 	 	 171 
  19 	 	 677 	 	 169 	 	 7 	 	 989 	 	 1219 	 	 153 
  20 	 	 645 	 	 260 	 	 8 	 	 1027 	 	 1473 	 	 194 
  21 	 	 177 	 	 283 	 	 6 	 	 1002 	 	 1210 	 	 176 
  22 	 	 378 	 	 301 	 	 5 	 	 1259 	 	 1697 	 	 107 
  23 	 	 940 	 	 710 	 	 7 	 	 944 	 	 1298 	 	 151 
  24 	 	 699 	 	 136 	 	 9 	 	 846 	 	 1141 	 	 134 
  25 	 	 105 	 	 383 	 	 10 	 	 742 	 	 1202 	 	 156 
  26 	 	 764 	 	 207 	 	 6 	 	 1493 	 	 1754 	 	 158 
  27 	 	 651 	 	 184 	 	 5 	 	 1213 	 	 1430 	 	 104 
  28 	 	 224 	 	 268 	 	 10 	 	 189 	 	 396 	 	 163 
  29 	 	 693 	 	 199 	 	 6 	 	 131 	 	 616 	 	 176 
  30 	 	 734 	 	 158 	 	 8 	 	 167 	 	 455 	 	 171 
  31 	 	 908 	 	 608 	 	 8 	 	 1891 	 	 2341 	 	 188 
  32 	 	 31 	 	 453 	 	 8 	 	 304 	 	 565 	 	 176 
  33 	 	 733 	 	 161 	 	 10 	 	 2040 	 	 2381 	 	 140 
  34 	 	 950 	 	 852 	 	 5 	 	 994 	 	 1475 	 	 147 
  35 	 	 135 	 	 368 	 	 5 	 	 146 	 	 537 	 	 156 
  36 	 	 802 	 	 768 	 	 10 	 	 778 	 	 1019 	 	 118 
  37 	 	 150 	 	 310 	 	 5 	 	 477 	 	 864 	 	 116 
  38 	 	 723 	 	 145 	 	 6 	 	 94 	 	 518 	 	 161 
  39 	 	 310 	 	 6 	 	 8 	 	 1393 	 	 1853 	 	 128 
  40 	 	 678 	 	 222 	 	 10 	 	 1426 	 	 1871 	 	 152 
  41 	 	 613 	 	 302 	 	 7 	 	 503 	 	 993 	 	 101 
  42 	 	 605 	 	 254 	 	 8 	 	 1742 	 	 1952 	 	 192 
  43 	 	 938 	 	 661 	 	 9 	 	 754 	 	 964 	 	 122 
  44 	 	 662 	 	 204 	 	 5 	 	 1140 	 	 1488 	 	 154 
  45 	 	 140 	 	 337 	 	 9 	 	 1528 	 	 1857 	 	 191 
  46 	 	 89 	 	 391 	 	 9 	 	 2116 	 	 2332 	 	 148 
  47 	 	 41 	 	 448 	 	 10 	 	 238 	 	 508 	 	 118 
  48 	 	 20 	 	 510 	 	 8 	 	 1623 	 	 1996 	 	 139 
  49 	 	 976 	 	 770 	 	 9 	 	 391 	 	 687 	 	 114 
  50 	 	 38 	 	 477 	 	 9 	 	 1865 	 	 2241 	 	 137 
  51 	 	 185 	 	 172 	 	 8 	 	 269 	 	 669 	 	 191 
  52 	 	 698 	 	 177 	 	 8 	 	 1712 	 	 1984 	 	 182 
  53 	 	 636 	 	 303 	 	 9 	 	 1982 	 	 2332 	 	 147 
  54 	 	 616 	 	 90 	 	 8 	 	 1852 	 	 2319 	 	 176 
  55 	 	 697 	 	 242 	 	 9 	 	 1930 	 	 2381 	 	 169 
  56 	 	 943 	 	 679 	 	 5 	 	 2146 	 	 2350 	 	 114 
  57 	 	 750 	 	 77 	 	 10 	 	 1383 	 	 1826 	 	 139 
  58 	 	 877 	 	 722 	 	 10 	 	 1570 	 	 2024 	 	 138 
  59 	 	 142 	 	 272 	 	 9 	 	 109 	 	 466 	 	 153 
  60 	 	 967 	 	 692 	 	 10 	 	 2070 	 	 2381 	 	 145 
  61 	 	 986 	 	 753 	 	 10 	 	 227 	 	 602 	 	 116 
  62 	 	 919 	 	 142 	 	 8 	 	 899 	 	 1237 	 	 119 
  63 	 	 164 	 	 367 	 	 5 	 	 1056 	 	 1465 	 	 165 
  64 	 	 906 	 	 712 	 	 6 	 	 973 	 	 1373 	 	 127 
  65 	 	 53 	 	 491 	 	 8 	 	 474 	 	 855 	 	 194 
  66 	 	 130 	 	 370 	 	 8 	 	 -13 	 	 462 	 	 200 
  67 	 	 684 	 	 257 	 	 5 	 	 1268 	 	 1658 	 	 123 
  68 	 	 945 	 	 699 	 	 9 	 	 1536 	 	 1924 	 	 199 
  69 	 	 165 	 	 283 	 	 7 	 	 1062 	 	 1561 	 	 185 
  70 	 	 939 	 	 681 	 	 9 	 	 1145 	 	 1481 	 	 165 
  71 	 	 681 	 	 210 	 	 9 	 	 1707 	 	 1931 	 	 122 
  72 	 	 106 	 	 539 	 	 6 	 	 968 	 	 1181 	 	 159 
  73 	 	 138 	 	 320 	 	 5 	 	 71 	 	 444 	 	 130 
  74 	 	 933 	 	 707 	 	 8 	 	 1681 	 	 2064 	 	 157 
  75 	 	 989 	 	 733 	 	 7 	 	 1878 	 	 2268 	 	 130 
  76 	 	 61 	 	 344 	 	 8 	 	 257 	 	 512 	 	 123 
  77 	 	 665 	 	 201 	 	 7 	 	 386 	 	 870 	 	 157 
  78 	 	 979 	 	 727 	 	 8 	 	 1350 	 	 1758 	 	 184 
  79 	 	 980 	 	 747 	 	 9 	 	 1224 	 	 1544 	 	 195 
  80 	 	 614 	 	 216 	 	 9 	 	 -73 	 	 411 	 	 142 
  81 	 	 662 	 	 218 	 	 9 	 	 -1 	 	 400 	 	 104 
  82 	 	 728 	 	 86 	 	 9 	 	 1181 	 	 1637 	 	 133 
  83 	 	 67 	 	 415 	 	 8 	 	 346 	 	 770 	 	 112 
  84 	 	 674 	 	 223 	 	 7 	 	 1136 	 	 1443 	 	 185 
  85 	 	 163 	 	 292 	 	 5 	 	 1300 	 	 1596 	 	 155 
  86 	 	 221 	 	 339 	 	 6 	 	 1969 	 	 2381 	 	 122 
  87 	 	 996 	 	 719 	 	 6 	 	 914 	 	 1413 	 	 122 
  88 	 	 117 	 	 338 	 	 8 	 	 753 	 	 1101 	 	 158 
  89 	 	 191 	 	 186 	 	 5 	 	 1375 	 	 1677 	 	 153 
  90 	 	 691 	 	 189 	 	 5 	 	 159 	 	 401 	 	 115 
  91 	 	 914 	 	 716 	 	 8 	 	 2147 	 	 2381 	 	 174 
  92 	 	 658 	 	 149 	 	 10 	 	 754 	 	 1133 	 	 162 
  93 	 	 745 	 	 222 	 	 7 	 	 1752 	 	 2142 	 	 154 
  94 	 	 766 	 	 799 	 	 5 	 	 2024 	 	 2361 	 	 155 
  95 	 	 124 	 	 245 	 	 5 	 	 634 	 	 905 	 	 182 
  96 	 	 21 	 	 547 	 	 5 	 	 1410 	 	 1728 	 	 116 
  97 	 	 135 	 	 287 	 	 8 	 	 1546 	 	 1752 	 	 161 
  98 	 	 754 	 	 39 	 	 8 	 	 1311 	 	 1800 	 	 168 
  99 	 	 883 	 	 689 	 	 7 	 	 2065 	 	 2381 	 	 148 
  100 	 	 601 	 	 343 	 	 8 	 	 691 	 	 980 	 	 177 
 